
--- Job RCPSP2.gms Start 03/14/15 12:20:04 24.4.1 r50296 WEX-VS8 x86 32bit/MS Windows
GAMS 24.4.1   Copyright (C) 1987-2014 GAMS Development. All rights reserved
Licensee: Kurslizenz                                     S140303/0001AW-GEN
          Leibniz University Hannover, Lehrstuhl fuer ProduktionswirtDC6657
          License for teaching and research at degree granting institutions
--- Starting compilation
--- RCPSP2.gms(40) 2 Mb
--- .RCPSP2_Input.inc(75) 3 Mb
--- RCPSP2.gms(160) 3 Mb
--- Starting execution: elapsed 0:00:00.163
--- RCPSP2.gms(197) 4 Mb
--- Generating MIP model RCPSP2
--- RCPSP2.gms(199) 4 Mb
---   121 rows  149 columns  571 non-zeroes
---   56 discrete-columns
--- Executing CPLEX: elapsed 0:00:00.764

IBM ILOG CPLEX   24.4.1 r50296 Released Dec 20, 2014 VS8 x86 32bit/MS Windows 
--- GAMS/Cplex licensed for continuous and discrete problems.
Cplex 12.6.1.0

Reading data...
Starting Cplex...
Space for names approximately 0.01 Mb
Use option 'names no' to turn use of names off
Tried aggregator 1 time.
MIP Presolve eliminated 94 rows and 82 columns.
MIP Presolve modified 111 coefficients.
Reduced MIP has 27 rows, 67 columns, and 257 nonzeros.
Reduced MIP has 49 binaries, 0 generals, 0 SOSs, and 0 indicators.
Presolve time = 0.05 sec. (0.28 ticks)
Found incumbent of value 900.000000 after 0.11 sec. (0.38 ticks)
Probing time = 0.00 sec. (0.09 ticks)
Tried aggregator 1 time.
Reduced MIP has 27 rows, 67 columns, and 257 nonzeros.
Reduced MIP has 49 binaries, 18 generals, 0 SOSs, and 0 indicators.
Presolve time = 0.00 sec. (0.14 ticks)
Probing time = 0.00 sec. (0.10 ticks)
Clique table members: 103.
MIP emphasis: balance optimality and feasibility.
MIP search method: dynamic search.
Parallel mode: none, using 1 thread.
Tried aggregator 1 time.
No LP presolve or aggregator reductions.
Presolve time = 0.00 sec. (0.03 ticks)
Initializing dual steep norms . . .

Iteration log . . .
Iteration:     1   Dual objective     =            48.000000
Root relaxation solution time = 0.09 sec. (0.21 ticks)

        Nodes                                         Cuts/
   Node  Left     Objective  IInf  Best Integer    Best Bound    ItCnt     Gap

*     0+    0                          900.0000       48.0000            94.67%
Found incumbent of value 900.000000 after 0.25 sec. (1.04 ticks)
      0     0      298.4000    16      900.0000      298.4000       51   66.84%
*     0+    0                          441.0000      298.4000            32.34%
Found incumbent of value 441.000000 after 0.31 sec. (1.14 ticks)
      0     0      398.8444    13      441.0000      Cuts: 27       81    9.56%
*     0     0      integral     0      420.0000      Cuts: 10       92    0.00%
Found incumbent of value 420.000000 after 0.36 sec. (2.32 ticks)
      0     0        cutoff            420.0000      420.0000       92    0.00%
Elapsed time = 0.36 sec. (2.32 ticks, tree = 0.00 MB, solutions = 3)

GUB cover cuts applied:  1
Clique cuts applied:  1
Implied bound cuts applied:  4
Flow cuts applied:  4
Mixed integer rounding cuts applied:  10
Zero-half cuts applied:  4
Gomory fractional cuts applied:  2

Root node processing (before b&c):
  Real time             =    0.37 sec. (2.33 ticks)
Sequential b&c:
  Real time             =    0.00 sec. (0.00 ticks)
                          ------------
Total (root+branch&cut) =    0.37 sec. (2.33 ticks)
MIP status(101): integer optimal solution
Cplex Time: 0.39sec (det. 2.33 ticks)
Fixing integer variables, and solving final LP...
Tried aggregator 1 time.
LP Presolve eliminated 121 rows and 149 columns.
All rows and columns eliminated.
Presolve time = 0.00 sec. (0.05 ticks)
Fixed MIP status(1): optimal
Cplex Time: 0.00sec (det. 0.10 ticks)

Proven optimal solution.

MIP Solution:          420.000000    (92 iterations, 0 nodes)
Final Solve:           420.000000    (0 iterations)

Best possible:         420.000000
Absolute gap:            0.000000
Relative gap:            0.000000

--- Restarting execution
--- RCPSP2.gms(199) 2 Mb
--- Reading solution for model RCPSP2
--- Executing after solve: elapsed 0:00:02.110
--- RCPSP2.gms(235) 3 Mb
--- Putfile outputfile1 C:\Sites\as-rcpsp\RCPSP2_solution_kosten.txt
--- Putfile outputfile2 C:\Sites\as-rcpsp\RCPSP2_solution_zeit.txt
--- Putfile outputfile3 C:\Sites\as-rcpsp\RCPSP2_solution_zw.txt
*** Status: Normal completion
--- Job RCPSP2.gms Stop 03/14/15 12:20:06 elapsed 0:00:02.116
